FILENAME:   /home/mcs001/s132664/testsets/IP/miplib2017/neos-960392.mps.gz
SETTINGS:   settings_final_nosym_norestarts
TIMELIMIT:  7200
OUTPUTNAME: final_miplib_symretope_if_extended_generating_set_cpx_v802__settings_final_nosym_norestarts__2__
BINNAME:    bin/sbcs.linux.x86_64.gnu.opt.cpx
BASENAME:   neos-960392.mps.gz
SEED:       2
@01 /home/mcs001/s132664/testsets/IP/miplib2017/neos-960392.mps.gz ===========
@02 neos-960392.mps.gz
@03 1686656538
SCIP version 8.0.2 [precision: 8 byte] [memory: block] [mode: optimized] [LP solver: CPLEX 20.1.0.0] [GitHash: 5f0473c]
Copyright (C) 2002-2022 Konrad-Zuse-Zentrum fuer Informationstechnik Berlin (ZIB)

Symretope propagation methods - (c) Jasper van Doornmalen, Christopher Hojny.
[GitHash: 2fd0484]

reading parameter file <../settings/settings_final_nosym_norestarts.set> ...

Changed settings:
limits/time = 7200
limits/restarts = 0
misc/usesymmetry = 0
randomization/randomseedshift = 2
constraints/orbisack/sepafreq = -1
constraints/symresack/sepafreq = -1
propagating/symmetry/detectsubgroups = FALSE
propagating/symmetry/usesymretopes = FALSE
propagating/symmetry/relabelsymretopes = 0
propagating/symmetry/ofsymcomptiming = 0
constraints/symretope/sepafreq = -1
constraints/symretope/peek = FALSE


solving problem ...

original problem has 59376 variables (59376 bin, 0 int, 0 impl, 0 cont) and 4744 constraints
feasible solution found by trivial heuristic after 0.2 seconds, objective value 0.000000e+00
presolving:
(round 1, fast)       96 del vars, 5 del conss, 0 add conss, 0 chg bounds, 171 chg sides, 513 chg coeffs, 0 upgd conss, 0 impls, 3736 clqs
(round 2, exhaustive) 96 del vars, 640 del conss, 0 add conss, 0 chg bounds, 171 chg sides, 513 chg coeffs, 0 upgd conss, 0 impls, 3736 clqs
(round 3, exhaustive) 96 del vars, 640 del conss, 0 add conss, 0 chg bounds, 171 chg sides, 513 chg coeffs, 4103 upgd conss, 0 impls, 3736 clqs
(round 4, medium)     96 del vars, 914 del conss, 137 add conss, 0 chg bounds, 171 chg sides, 513 chg coeffs, 4103 upgd conss, 0 impls, 3855 clqs
(round 5, exhaustive) 96 del vars, 1051 del conss, 137 add conss, 0 chg bounds, 171 chg sides, 513 chg coeffs, 4103 upgd conss, 0 impls, 3855 clqs
presolving (6 rounds: 6 fast, 5 medium, 4 exhaustive):
 123 deleted vars, 1051 deleted constraints, 137 added constraints, 0 tightened bounds, 0 added holes, 171 changed sides, 513 changed coefficients
 0 implications, 9503 cliques
presolved problem has 59253 variables (59253 bin, 0 int, 0 impl, 0 cont) and 3830 constraints
    503 constraints of type <knapsack>
   3325 constraints of type <setppc>
      1 constraints of type <linear>
      1 constraints of type <logicor>
transformed objective value is always integral (scale: 1)
Presolving Time: 1.34
transformed 1/1 original solutions to the transformed problem space

 time | node  | left  |LP iter|LP it/n|mem/heur|mdpt |vars |cons |rows |cuts |sepa|confs|strbr|  dualbound   | primalbound  |  gap   | compl. 
  3.3s|     1 |     0 |   190 |     - |   379M |   0 |  59k|3836 |3824 |   0 |  0 |  15 |   0 |-2.380000e+02 | 0.000000e+00 |    Inf | unknown
  4.8s|     1 |     0 |  1576 |     - |   387M |   0 |  59k|3836 |3826 |   4 |  1 |  16 |   0 |-2.380000e+02 | 0.000000e+00 |    Inf | unknown
  6.1s|     1 |     0 |  2014 |     - |   393M |   0 |  59k|3835 |3830 |   8 |  2 |  17 |   0 |-2.380000e+02 | 0.000000e+00 |    Inf | unknown
  6.8s|     1 |     0 |  2391 |     - |   393M |   0 |  59k|3836 |3838 |  16 |  3 |  18 |   0 |-2.380000e+02 | 0.000000e+00 |    Inf | unknown
  7.4s|     1 |     0 |  2601 |     - |   394M |   0 |  59k|3837 |3846 |  24 |  4 |  19 |   0 |-2.380000e+02 | 0.000000e+00 |    Inf | unknown
  8.1s|     1 |     0 |  2919 |     - |   395M |   0 |  59k|3838 |3850 |  28 |  5 |  20 |   0 |-2.380000e+02 | 0.000000e+00 |    Inf | unknown
  8.7s|     1 |     0 |  3158 |     - |   396M |   0 |  59k|3839 |3857 |  35 |  6 |  21 |   0 |-2.380000e+02 | 0.000000e+00 |    Inf | unknown
  9.2s|     1 |     0 |  3236 |     - |   397M |   0 |  59k|3839 |3860 |  38 |  7 |  21 |   0 |-2.380000e+02 | 0.000000e+00 |    Inf | unknown
  9.7s|     1 |     0 |  3391 |     - |   397M |   0 |  59k|3840 |3866 |  44 |  8 |  22 |   0 |-2.380000e+02 | 0.000000e+00 |    Inf | unknown
 10.3s|     1 |     0 |  3616 |     - |   399M |   0 |  59k|3841 |3868 |  46 |  9 |  23 |   0 |-2.380000e+02 | 0.000000e+00 |    Inf | unknown
 10.8s|     1 |     0 |  3728 |     - |   400M |   0 |  59k|3842 |3870 |  48 | 10 |  24 |   0 |-2.380000e+02 | 0.000000e+00 |    Inf | unknown
 11.4s|     1 |     0 |  4583 |     - |   400M |   0 |  59k|3842 |3872 |  50 | 11 |  24 |   0 |-2.380000e+02 | 0.000000e+00 |    Inf | unknown
 11.6s|     1 |     0 |  4583 |     - |   400M |   0 |  59k|3842 |3872 |  50 | 11 |  25 |   0 |-2.380000e+02 | 0.000000e+00 |    Inf | unknown
 12.0s|     1 |     0 |  5729 |     - |   399M |   0 |  59k|3842 |3873 |  51 | 12 |  25 |   0 |-2.380000e+02 | 0.000000e+00 |    Inf | unknown
 13.6s|     1 |     0 | 10390 |     - |   400M |   0 |  59k|3842 |3879 |  57 | 13 |  25 |   0 |-2.380000e+02 | 0.000000e+00 |    Inf | unknown
 time | node  | left  |LP iter|LP it/n|mem/heur|mdpt |vars |cons |rows |cuts |sepa|confs|strbr|  dualbound   | primalbound  |  gap   | compl. 
 14.9s|     1 |     0 | 14044 |     - |   401M |   0 |  59k|3842 |3882 |  60 | 14 |  25 |   0 |-2.380000e+02 | 0.000000e+00 |    Inf | unknown
 15.7s|     1 |     0 | 15759 |     - |   401M |   0 |  59k|3842 |3886 |  64 | 15 |  25 |   0 |-2.380000e+02 | 0.000000e+00 |    Inf | unknown
 16.2s|     1 |     0 | 16800 |     - |   402M |   0 |  59k|3843 |3890 |  68 | 16 |  26 |   0 |-2.380000e+02 | 0.000000e+00 |    Inf | unknown
 17.6s|     1 |     0 | 19902 |     - |   403M |   0 |  59k|3843 |3883 |  71 | 17 |  26 |   0 |-2.380000e+02 | 0.000000e+00 |    Inf | unknown
 18.4s|     1 |     0 | 21681 |     - |   404M |   0 |  59k|3843 |3888 |  76 | 18 |  26 |   0 |-2.380000e+02 | 0.000000e+00 |    Inf | unknown
 19.4s|     1 |     0 | 24164 |     - |   405M |   0 |  59k|3843 |3889 |  77 | 19 |  26 |   0 |-2.380000e+02 | 0.000000e+00 |    Inf | unknown
 19.9s|     1 |     0 | 25148 |     - |   406M |   0 |  59k|3844 |3893 |  81 | 20 |  27 |   0 |-2.380000e+02 | 0.000000e+00 |    Inf | unknown
 20.3s|     1 |     0 | 25966 |     - |   406M |   0 |  59k|3845 |3895 |  83 | 21 |  28 |   0 |-2.380000e+02 | 0.000000e+00 |    Inf | unknown
 21.3s|     1 |     0 | 29094 |     - |   406M |   0 |  59k|3845 |3897 |  85 | 22 |  28 |   0 |-2.380000e+02 | 0.000000e+00 |    Inf | unknown
 22.1s|     1 |     0 | 29580 |     - |   406M |   0 |  59k|3846 |3881 |  90 | 23 |  29 |   0 |-2.380000e+02 | 0.000000e+00 |    Inf | unknown
 22.5s|     1 |     0 | 30101 |     - |   407M |   0 |  59k|3846 |3883 |  92 | 24 |  29 |   0 |-2.380000e+02 | 0.000000e+00 |    Inf | unknown
 22.7s|     1 |     0 | 30106 |     - |   408M |   0 |  59k|3846 |3884 |  93 | 25 |  29 |   0 |-2.380000e+02 | 0.000000e+00 |    Inf | unknown
 23.5s|     1 |     0 | 32319 |     - |   408M |   0 |  59k|3847 |3885 |  94 | 26 |  30 |   0 |-2.380000e+02 | 0.000000e+00 |    Inf | unknown
 24.5s|     1 |     0 | 35054 |     - |   408M |   0 |  59k|3847 |3888 |  97 | 27 |  30 |   0 |-2.380000e+02 | 0.000000e+00 |    Inf | unknown
o27.5s|     1 |     0 | 39727 |     - |feaspump|   0 |  59k|3848 |3888 |  97 | 28 |  31 |   0 |-2.380000e+02 |-2.250000e+02 |   5.78%| unknown
 time | node  | left  |LP iter|LP it/n|mem/heur|mdpt |vars |cons |rows |cuts |sepa|confs|strbr|  dualbound   | primalbound  |  gap   | compl. 
 28.8s|     1 |     0 | 43069 |     - |   418M |   0 |  59k|3855 |3888 |  97 | 28 |  38 |   0 |-2.380000e+02 |-2.250000e+02 |   5.78%| unknown
 29.4s|     1 |     0 | 44586 |     - |   418M |   0 |  59k|3855 |3889 |  98 | 29 |  38 |   0 |-2.380000e+02 |-2.250000e+02 |   5.78%| unknown
 34.7s|     1 |     2 | 44586 |     - |   419M |   0 |  59k|3856 |3889 |  98 | 30 |  39 |  19 |-2.380000e+02 |-2.250000e+02 |   5.78%| unknown
  161s|   100 |    85 |407972 |3751.5 |   463M |  17 |  59k|3916 |3865 | 171 |  2 | 103 |  19 |-2.380000e+02 |-2.250000e+02 |   5.78%|   1.00%
d 168s|   103 |     0 |425813 |3816.1 |adaptive|  17 |  59k|3916 |3863 |   0 |  1 | 103 |  19 |-2.380000e+02 |-2.380000e+02 |   0.00%| 100.00%

SCIP Status        : problem is solved [optimal solution found]
Solving Time (sec) : 167.73
Solving Nodes      : 103
Primal Bound       : -2.38000000000000e+02 (3 solutions)
Dual Bound         : -2.38000000000000e+02
Gap                : 0.00 %
SCIP Status        : problem is solved [optimal solution found]
Total Time         :     167.94
  solving          :     167.73
  presolving       :       1.34 (included in solving)
  reading          :       0.21
  copying          :       0.38 (3 #copies) (minimal 0.12, maximal 0.13, average 0.13)
Original Problem   :
  Problem name     : neos-960392
  Variables        : 59376 (59376 binary, 0 integer, 0 implicit integer, 0 continuous)
  Constraints      : 4744 initial, 4744 maximal
  Objective        : minimize, 1575 non-zeros (abs.min = 1, abs.max = 1)
Presolved Problem  :
  Problem name     : t_neos-960392
  Variables        : 59253 (59253 binary, 0 integer, 0 implicit integer, 0 continuous)
  Constraints      : 3830 initial, 3916 maximal
  Objective        : minimize, 1572 non-zeros (abs.min = 1, abs.max = 1)
  Nonzeros         : 185130 constraint, 189361 clique table
Presolvers         :   ExecTime  SetupTime  Calls  FixedVars   AggrVars   ChgTypes  ChgBounds   AddHoles    DelCons    AddCons   ChgSides   ChgCoefs
  boundshift       :       0.00       0.00      0          0          0          0          0          0          0          0          0          0
  convertinttobin  :       0.00       0.00      0          0          0          0          0          0          0          0          0          0
  domcol           :       0.08       0.00      1          0          0          0          0          0          0          0          0          0
  dualagg          :       0.00       0.00      0          0          0          0          0          0          0          0          0          0
  dualcomp         :       0.00       0.00      0          0          0          0          0          0          0          0          0          0
  dualinfer        :       0.00       0.00      0          0          0          0          0          0          0          0          0          0
  dualsparsify     :       0.08       0.00      1          0          0          0          0          0          0          0          0          0
  gateextraction   :       0.00       0.00      2          0          0          0          0          0          0          0          0          0
  implics          :       0.01       0.00      5          0          0          0          0          0          0          0          0          0
  inttobinary      :       0.00       0.00      0          0          0          0          0          0          0          0          0          0
  qpkktref         :       0.00       0.00      0          0          0          0          0          0          0          0          0          0
  redvub           :       0.00       0.00      0          0          0          0          0          0          0          0          0          0
  sparsify         :       0.40       0.00      1          0          0          0          0          0          0          0          0          0
  stuffing         :       0.00       0.00      0          0          0          0          0          0          0          0          0          0
  trivial          :       0.02       0.00      6          0          0          0          0          0          0          0          0          0
  tworowbnd        :       0.00       0.00      0          0          0          0          0          0          0          0          0          0
  dualfix          :       0.02       0.00      6         91          0          0          0          0          0          0          0          0
  genvbounds       :       0.00       0.00      0          0          0          0          0          0          0          0          0          0
  probing          :       0.13       0.00      1         27          0          0          0          0          0          0          0          0
  pseudoobj        :       0.00       0.00      1          0          0          0          0          0          0          0          0          0
  symmetry         :       0.00       0.00      0          0          0          0          0          0          0          0          0          0
  vbounds          :       0.03       0.00      1          0          0          0          0          0          0          0          0          0
  knapsack         :       0.03       0.00      8          0          0          0          0          0        137        137          0          0
  setppc           :       0.21       0.01      8          0          0          0          0          0        274          0          0          0
  linear           :       0.13       0.04      9          0          5          0          0          0        640          0        171        513
  logicor          :       0.00       0.00      7          0          0          0          0          0          0          0          0          0
  benders          :       0.00       0.00      0          0          0          0          0          0          0          0          0          0
  components       :       0.04       0.00      1          0          0          0          0          0          0          0          0          0
  root node        :          -          -      -         25          -          -         25          -          -          -          -          -
Constraints        :     Number  MaxNumber  #Separate #Propagate    #EnfoLP    #EnfoRelax  #EnfoPS    #Check   #ResProp    Cutoffs    DomReds       Cuts    Applied      Conss   Children
  benderslp        :          0          0          0          0         95          0          0         23          0          0          0          0          0          0          0
  integral         :          0          0          0          0         95          0          0         23          0          0          0          0          0          0        190
  knapsack         :        503        503         29      38883          0          0          0         18       1105         26        474         67         22          0          0
  setppc           :       3325+      3339         29      38857          0          0          0          3       3402         18      47207          1          0          0          0
  linear           :          1+        10         29      38839          0          0          0          3          1         35        195          0          0          0          0
  logicor          :          1+        66         29        163          0          0          0          3          2          0          7          1          1          0          0
  benders          :          0          0          0          0          0          0          0          5          0          0          0          0          0          0          0
  countsols        :          0          0          0          0          0          0          0          5          0          0          0          0          0          0          0
  components       :          0          0          0          0          0          0          0          0          0          0          0          0          0          0          0
Constraint Timings :  TotalTime  SetupTime   Separate  Propagate     EnfoLP     EnfoPS     EnfoRelax   Check    ResProp    SB-Prop
  benderslp        :       0.00       0.00       0.00       0.00       0.00       0.00       0.00       0.00       0.00       0.00
  integral         :       5.63       0.00       0.00       0.00       5.60       0.00       0.00       0.03       0.00       0.00
  knapsack         :       0.12       0.00       0.05       0.07       0.00       0.00       0.00       0.00       0.00       0.00
  setppc           :       1.18       0.01       0.05       1.10       0.00       0.00       0.00       0.01       0.01       0.01
  linear           :       0.05       0.04       0.00       0.01       0.00       0.00       0.00       0.00       0.00       0.00
  logicor          :       0.00       0.00       0.00       0.00       0.00       0.00       0.00       0.00       0.00       0.00
  benders          :       0.00       0.00       0.00       0.00       0.00       0.00       0.00       0.00       0.00       0.00
  countsols        :       0.00       0.00       0.00       0.00       0.00       0.00       0.00       0.00       0.00       0.00
  components       :       0.00       0.00       0.00       0.00       0.00       0.00       0.00       0.00       0.00       0.00
Propagators        : #Propagate   #ResProp    Cutoffs    DomReds
  dualfix          :          4          0          0          1
  genvbounds       :          0          0          0          0
  nlobbt           :          0          0          0          0
  obbt             :          0          0          0          0
  probing          :          0          0          0          0
  pseudoobj        :        551          0          0          0
  redcost          :         34          0          0          0
  rootredcost      :          0          0          0          0
  symmetry         :          0          0          0          0
  vbounds          :       7377          0          0          0
Propagator Timings :  TotalTime  SetupTime   Presolve  Propagate    ResProp    SB-Prop
  dualfix          :       0.03       0.00       0.02       0.01       0.00       0.00
  genvbounds       :       0.00       0.00       0.00       0.00       0.00       0.00
  nlobbt           :       0.00       0.00       0.00       0.00       0.00       0.00
  obbt             :       0.00       0.00       0.00       0.00       0.00       0.00
  probing          :       0.14       0.00       0.13       0.00       0.00       0.00
  pseudoobj        :       0.43       0.00       0.00       0.43       0.00       0.00
  redcost          :       0.14       0.00       0.00       0.14       0.00       0.00
  rootredcost      :       0.00       0.00       0.00       0.00       0.00       0.00
  symmetry         :       0.00       0.00       0.00       0.00       0.00       0.00
  vbounds          :       0.13       0.00       0.03       0.09       0.00       0.00
Conflict Analysis  :       Time      Calls    Success    DomReds  Conflicts   Literals    Reconvs ReconvLits   Dualrays   Nonzeros   LP Iters   (pool size: [10000,10000])
  propagation      :       0.00         38         37          -         41        2.6          0        0.0          -          -          -
  infeasible LP    :       0.11          9          9          -         84      181.5          1        2.0          9     1512.6          0
  bound exceed. LP :       0.06          1          1          -        245     1149.8          0        0.0          1     1572.0          0
  strong branching :       0.00          0          0          -          0        0.0          0        0.0          -          -          0
  pseudo solution  :       0.00          0          0          -          0        0.0          0        0.0          -          -          -
  applied globally :       0.03          -          -          0         93       67.5          -          -         10          -          -
  applied locally  :          -          -          -          0          0        0.0          -          -          0          -          -
Separators         :   ExecTime  SetupTime      Calls  RootCalls    Cutoffs    DomReds  FoundCuts ViaPoolAdd  DirectAdd    Applied ViaPoolApp  DirectApp      Conss
  cut pool         :       0.08          -         85         56          -          -        800        731          -          -          -          -          -    (maximal pool size:        800)
  aggregation      :       0.91       0.00         47         29          0          0         89        165          0         31         31          0          0
  > cmir           :          -          -          -          -          -          -          -        154          0         21         21          0          -
  > flowcover      :          -          -          -          -          -          -          -         10          0          9          9          0          -
  > knapsackcover  :          -          -          -          -          -          -          -          1          0          1          1          0          -
  cgmip            :       0.00       0.00          0          0          0          0          0          0          0          0          0          0          0
  clique           :       1.46       0.00         29         29          0          0         27         26          0         19         19          0          0
  closecuts        :       0.00       0.00          0          0          0          0          0          0          0          0          0          0          0
  convexproj       :       0.00       0.00          0          0          0          0          0          0          0          0          0          0          0
  disjunctive      :       0.00       0.00          0          0          0          0          0          0          0          0          0          0          0
  eccuts           :       0.00       0.00          0          0          0          0          0          0          0          0          0          0          0
  gauge            :       0.00       0.00          0          0          0          0          0          0          0          0          0          0          0
  gomory           :       4.86       0.00         28         10          0          0        633        497          0         36         36          0          0
  > gomorymi       :          -          -          -          -          -          -          -        335          0         23         23          0          -
  > strongcg       :          -          -          -          -          -          -          -        162          0         13         13          0          -
  impliedbounds    :       0.16       0.00         47         29          0         12          1          1          0          1          1          0          0
  interminor       :       0.00       0.00          0          0          0          0          0          0          0          0          0          0          0
  intobj           :       0.00       0.00          0          0          0          0          0          0          0          0          0          0          0
  mcf              :       0.03       0.00          1          1          0          0          0          0          0          0          0          0          0
  minor            :       0.00       0.00          0          0          0          0          0          0          0          0          0          0          0
  mixing           :       0.00       0.00          0          0          0          0          0          0          0          0          0          0          0
  oddcycle         :       0.00       0.00          0          0          0          0          0          0          0          0          0          0          0
  rapidlearning    :       0.12       0.00          0          0          0          0          0          0          0          0          0          0          0
  rlt              :       0.00       0.00         10         10          0          0          0          0          0          0          0          0          0
  zerohalf         :       1.73       0.00         38         20          0          0         77         42         27         61         36         25          0
Cutselectors       :   ExecTime  SetupTime      Calls  RootCalls   Selected     Forced   Filtered  RootSelec   RootForc   RootFilt 
  hybrid           :       0.01       0.00         46         28        171          0        656         98          0         98
Pricers            :   ExecTime  SetupTime      Calls       Vars
  problem variables:       0.00          -          0          0
Branching Rules    :   ExecTime  SetupTime   BranchLP  BranchExt   BranchPS    Cutoffs    DomReds       Cuts      Conss   Children
  allfullstrong    :       0.00       0.00          0          0          0          0          0          0          0          0
  cloud            :       0.00       0.00          0          0          0          0          0          0          0          0
  distribution     :       0.00       0.00          0          0          0          0          0          0          0          0
  fullstrong       :       0.00       0.00          0          0          0          0          0          0          0          0
  inference        :       0.00       0.00          0          0          0          0          0          0          0          0
  leastinf         :       0.00       0.00          0          0          0          0          0          0          0          0
  lookahead        :       0.00       0.00          0          0          0          0          0          0          0          0
  mostinf          :       0.00       0.00          0          0          0          0          0          0          0          0
  multaggr         :       0.00       0.00          0          0          0          0          0          0          0          0
  nodereopt        :       0.00       0.00          0          0          0          0          0          0          0          0
  pscost           :       0.00       0.00          0          0          0          0          0          0          0          0
  random           :       0.00       0.00          0          0          0          0          0          0          0          0
  relpscost        :       5.60       0.00         95          0          0          0          0          0          0        190
  vanillafullstrong:       0.00       0.00          0          0          0          0          0          0          0          0
Primal Heuristics  :   ExecTime  SetupTime      Calls      Found       Best
  LP solutions     :       0.00          -          -          0          0
  relax solutions  :       0.00          -          -          0          0
  pseudo solutions :       0.00          -          -          0          0
  strong branching :       0.00          -          -          0          0
  actconsdiving    :       0.00       0.00          0          0          0
  adaptivediving   :       5.73       0.00          2          1          1
  alns             :       0.38       0.00          1          0          0
  bound            :       0.00       0.00          0          0          0
  clique           :       0.34       0.00          1          0          0
  coefdiving       :       0.00       0.00          0          0          0
  completesol      :       0.00       0.00          0          0          0
  conflictdiving   :       0.48       0.00          1          0          0
  crossover        :       0.00       0.00          0          0          0
  dins             :       0.00       0.00          0          0          0
  distributiondivin:       3.32       0.00          1          0          0
  dps              :       0.00       0.00          0          0          0
  dualval          :       0.00       0.00          0          0          0
  farkasdiving     :       0.00       0.00          0          0          0
  feaspump         :       2.96       0.00          1          1          1
  fixandinfer      :       0.00       0.00          0          0          0
  fracdiving       :       0.58       0.00          1          0          0
  gins             :       0.43       0.00          1          0          0
  guideddiving     :       2.17       0.00          1          0          0
  indicator        :       0.00       0.00          0          0          0
  intdiving        :       0.00       0.00          0          0          0
  intshifting      :       0.00       0.00          0          0          0
  linesearchdiving :       1.06       0.00          1          0          0
  localbranching   :       0.00       0.00          0          0          0
  locks            :       0.23       0.00          1          0          0
  lpface           :       0.02       0.00          0          0          0
  mpec             :       0.00       0.00          0          0          0
  multistart       :       0.00       0.00          0          0          0
  mutation         :       0.00       0.00          0          0          0
  nlpdiving        :       0.00       0.00          0          0          0
  objpscostdiving  :       6.26       0.00          1          0          0
  octane           :       0.00       0.00          0          0          0
  ofins            :       0.00       0.00          0          0          0
  oneopt           :       0.05       0.00          2          0          0
  padm             :       0.00       0.00          0          0          0
  proximity        :       0.00       0.00          0          0          0
  pscostdiving     :       6.52       0.00          1          0          0
  randrounding     :       1.24       0.00         30          0          0
  rens             :       0.37       0.00          1          0          0
  reoptsols        :       0.00       0.00          0          0          0
  repair           :       0.00       0.00          0          0          0
  rins             :       0.00       0.00          0          0          0
  rootsoldiving    :      22.61       0.00          1          0          0
  rounding         :       0.25       0.00        119          0          0
  shiftandpropagate:       0.00       0.00          0          0          0
  shifting         :       1.00       0.00         56          0          0
  simplerounding   :       0.00       0.00        143          0          0
  subnlp           :       0.00       0.00          0          0          0
  trivial          :       0.11       0.00          2          1          1
  trivialnegation  :       0.00       0.00          0          0          0
  trustregion      :       0.00       0.00          0          0          0
  trysol           :       0.00       0.00          0          0          0
  twoopt           :       0.00       0.00          0          0          0
  undercover       :       0.00       0.00          0          0          0
  vbounds          :       0.40       0.00          1          0          0
  veclendiving     :       0.41       0.00          1          0          0
  zeroobj          :       0.00       0.00          0          0          0
  zirounding       :       0.04       0.00         94          0          0
  other solutions  :          -          -          -          0          -
LP                 :       Time      Calls Iterations  Iter/call   Iter/sec  Time-0-It Calls-0-It    ItLimit
  primal LP        :       5.97         16          0       0.00       0.00       5.97         16
  dual LP          :      85.02        148     291365    1995.65    3427.20       0.01          2
  lex dual LP      :       0.00          0          0       0.00          -
  barrier LP       :       0.00          0          0       0.00          -       0.00          0
  resolve instable :       0.00          0          0       0.00          -
  diving/probing LP:      46.74        138     134448     974.26    2876.59
  strong branching :       5.16         19      19000    1000.00    3682.50          -          -         38
    (at root node) :          -         19      19000    1000.00          -
  conflict analysis:       0.00          0          0       0.00          -
B&B Tree           :
  number of runs   :          1
  nodes            :        103 (95 internal, 8 leaves)
  feasible leaves  :          0
  infeas. leaves   :          8
  objective leaves :          0
  nodes (total)    :        103 (95 internal, 8 leaves)
  nodes left       :          0
  max depth        :         17
  max depth (total):         17
  backtracks       :          9 (8.7%)
  early backtracks :          0 (0.0%)
  nodes exc. ref.  :          0 (0.0%)
  delayed cutoffs  :          0
  repropagations   :         20 (408 domain reductions, 0 cutoffs)
  avg switch length:       2.39
  switching time   :       5.27
Root Node          :
  First LP value   : -2.38000000000000e+02
  First LP Iters   :        190 (628.29 Iter/sec)
  First LP Time    :       0.30
  Final Dual Bound : -2.38000000000000e+02
  Final Root Iters :      36571
  Root LP Estimate : -2.37997859469782e+02
Solution           :
  Solutions found  :          3 (3 improvements)
  First Solution   : +0.00000000000000e+00   (in run 1, after 0 nodes, 0.16 seconds, depth 0, found by <trivial>)
  Gap First Sol.   :   infinite
  Gap Last Sol.    :       0.00 %
  Primal Bound     : -2.38000000000000e+02   (in run 1, after 103 nodes, 167.70 seconds, depth 37, found by <adaptivediving>)
  Dual Bound       : -2.38000000000000e+02
  Gap              :       0.00 %
Integrals          :      Total       Avg%
  primal-dual      :    3518.79      20.98
  primal-ref       :          -          - (not evaluated)
  dual-ref         :          -          - (not evaluated)
written solution information to file <results/final_miplib_symretope_if_extended_generating_set_cpx_v802__settings_final_nosym_norestarts__2__neos-960392.mps.gz.sol>
@04 1686656707
